100
32
12
23
3
13
9
15
17
9
9
1
2
9
1
3
1
2
2
1
19
1
4
1
3
4
1
17
3
2
17
2
4
17
3
3
17
3
16
3
2
2
4
3
4
1
2
1
1
17
3
17
2
3
6
1
3
18
1
1
2
3
4
2
1
9
4
2
1
17
4
2
2
2
1
17
4
6
1
3
1
2
1
1
2
5
2
1
1
3
2
1
18
5
2
1
4
1
2
3
2
1